25 70 169
1 6 1
1 14 1
1 19 1
1 23 1
1 25 5
2 6 5
2 7 3
2 11 4
2 15 2
2 16 3
2 21 4
2 22 5
2 23 2
3 10 1
3 13 2
3 14 1
3 18 3
3 20 4
3 24 3
4 10 4
4 13 3
4 17 1
4 24 5
4 25 2
5 14 4
5 16 2
5 17 2
5 18 4
5 19 5
5 22 5
5 25 5
6 8 1
6 10 4
7 11 2
7 19 2
7 21 5
7 25 3
8 11 4
8 15 2
8 17 5
8 18 1
9 10 2
9 21 4
9 23 2
11 13 5
11 14 3
11 15 2
12 17 5
12 19 3
12 24 1
13 14 3
13 15 4
13 16 3
13 17 4
13 23 4
14 15 4
14 19 5
14 22 1
15 22 3
16 22 2
17 19 5
17 20 3
17 24 1
17 25 1
18 21 5
19 20 3
20 23 1
21 22 2
22 23 5
22 24 1
